\\ Objective function 
 
Minimize 

obj: -0.5 soft_c_ag1_0 - 0.5 soft_c_ag1_1 - 0.5 soft_c_ag1_2 - 0.5 soft_c_ag1_3 - 0.5 soft_c_ag1_4 - 0.5 soft_c_ag1_5 - 0.5 soft_c_ag1_6 - 0.5 soft_c_ag2_0 - 0.5 soft_c_ag2_1 - 0.5 soft_c_ag2_2 - 0.5 soft_c_ag2_3 - 0.5 soft_c_ag2_4 - 0.5 soft_c_ag2_5 - 0.5 soft_c_ag2_6 - 0.5 soft_c_ag3_0 - 0.5 soft_c_ag3_1 - 0.5 soft_c_ag3_2 - 0.5 soft_c_ag3_3 - 0.5 soft_c_ag3_4 - 0.5 soft_c_ag3_5 - 0.5 soft_c_ag3_6 + s0_0_m0 + s0_0_m1 + s0_0_m2 + s0_0_a0 + s0_0_a1 + s1_0_m0 + s1_0_m1 + s1_0_m2 + s1_0_a0 + s1_0_a1 + s2_0_m0 + s2_0_m1 + s2_0_m2 + s2_0_a0 + s2_0_a1 + s3_0_m0 + s3_0_m1 + s3_0_m2 + s3_0_a0 + s3_0_a1 + s4_0_m0 + s4_0_m1 + s4_0_m2 + s4_0_a0 + s4_0_a1 + s5_0_m0 + s5_0_m1 + s5_0_m2 + s5_0_a0 + s5_0_a1 + s6_0_m0 + s6_0_m1 + s6_0_m2 + s6_0_a0 + s6_0_a1 + s7_0_m0 + s7_0_m1 + s7_0_m2 + s7_0_a0 + s7_0_a1 + s8_0_m0 + s8_0_m1 + s8_0_m2 + s8_0_a0 + s8_0_a1 + s0_1_m0 + s0_1_m1 + s0_1_m2 + s0_1_a0 + s0_1_a1 + s1_1_m0 + s1_1_m1 + s1_1_m2 + s1_1_a0 + s1_1_a1 + s2_1_m0 + s2_1_m1 + s2_1_m2 + s2_1_a0 + s2_1_a1 + s3_1_m0 + s3_1_m1 + s3_1_m2 + s3_1_a0 + s3_1_a1 + s4_1_m0 + s4_1_m1 + s4_1_m2 + s4_1_a0 + s4_1_a1 + s5_1_m0 + s5_1_m1 + s5_1_m2 + s5_1_a0 + s5_1_a1 + s6_1_m0 + s6_1_m1 + s6_1_m2 + s6_1_a0 + s6_1_a1 + s7_1_m0 + s7_1_m1 + s7_1_m2 + s7_1_a0 + s7_1_a1 + s8_1_m0 + s8_1_m1 + s8_1_m2 + s8_1_a0 + s8_1_a1 + s0_2_m0 + s0_2_m1 + s0_2_m2 + s0_2_a0 + s0_2_a1 + s1_2_m0 + s1_2_m1 + s1_2_m2 + s1_2_a0 + s1_2_a1 + s2_2_m0 + s2_2_m1 + s2_2_m2 + s2_2_a0 + s2_2_a1 + s3_2_m0 + s3_2_m1 + s3_2_m2 + s3_2_a0 + s3_2_a1 + s4_2_m0 + s4_2_m1 + s4_2_m2 + s4_2_a0 + s4_2_a1 + s5_2_m0 + s5_2_m1 + s5_2_m2 + s5_2_a0 + s5_2_a1 + s6_2_m0 + s6_2_m1 + s6_2_m2 + s6_2_a0 + s6_2_a1 + s7_2_m0 + s7_2_m1 + s7_2_m2 + s7_2_a0 + s7_2_a1 + s8_2_m0 + s8_2_m1 + s8_2_m2 + s8_2_a0 + s8_2_a1 + s0_3_m0 + s0_3_m1 + s0_3_m2 + s0_3_a0 + s0_3_a1 + s1_3_m0 + s1_3_m1 + s1_3_m2 + s1_3_a0 + s1_3_a1 + s2_3_m0 + s2_3_m1 + s2_3_m2 + s2_3_a0 + s2_3_a1 + s3_3_m0 + s3_3_m1 + s3_3_m2 + s3_3_a0 + s3_3_a1 + s4_3_m0 + s4_3_m1 + s4_3_m2 + s4_3_a0 + s4_3_a1 + s5_3_m0 + s5_3_m1 + s5_3_m2 + s5_3_a0 + s5_3_a1 + s6_3_m0 + s6_3_m1 + s6_3_m2 + s6_3_a0 + s6_3_a1 + s7_3_m0 + s7_3_m1 + s7_3_m2 + s7_3_a0 + s7_3_a1 + s8_3_m0 + s8_3_m1 + s8_3_m2 + s8_3_a0 + s8_3_a1 + s0_4_m0 + s0_4_m1 + s0_4_m2 + s0_4_a0 + s0_4_a1 + s1_4_m0 + s1_4_m1 + s1_4_m2 + s1_4_a0 + s1_4_a1 + s2_4_m0 + s2_4_m1 + s2_4_m2 + s2_4_a0 + s2_4_a1 + s3_4_m0 + s3_4_m1 + s3_4_m2 + s3_4_a0 + s3_4_a1 + s4_4_m0 + s4_4_m1 + s4_4_m2 + s4_4_a0 + s4_4_a1 + s5_4_m0 + s5_4_m1 + s5_4_m2 + s5_4_a0 + s5_4_a1 + s6_4_m0 + s6_4_m1 + s6_4_m2 + s6_4_a0 + s6_4_a1 + s7_4_m0 + s7_4_m1 + s7_4_m2 + s7_4_a0 + s7_4_a1 + s8_4_m0 + s8_4_m1 + s8_4_m2 + s8_4_a0 + s8_4_a1 + s0_5_m0 + s0_5_m1 + s0_5_m2 + s0_5_a0 + s0_5_a1 + s1_5_m0 + s1_5_m1 + s1_5_m2 + s1_5_a0 + s1_5_a1 + s2_5_m0 + s2_5_m1 + s2_5_m2 + s2_5_a0 + s2_5_a1 + s3_5_m0 + s3_5_m1 + s3_5_m2 + s3_5_a0 + s3_5_a1 + s4_5_m0 + s4_5_m1 + s4_5_m2 + s4_5_a0 + s4_5_a1 + s5_5_m0 + s5_5_m1 + s5_5_m2 + s5_5_a0 + s5_5_a1 + s6_5_m0 + s6_5_m1 + s6_5_m2 + s6_5_a0 + s6_5_a1 + s7_5_m0 + s7_5_m1 + s7_5_m2 + s7_5_a0 + s7_5_a1 + s8_5_m0 + s8_5_m1 + s8_5_m2 + s8_5_a0 + s8_5_a1 + s0_6_m0 + s0_6_m1 + s0_6_m2 + s0_6_a0 + s0_6_a1 + s1_6_m0 + s1_6_m1 + s1_6_m2 + s1_6_a0 + s1_6_a1 + s2_6_m0 + s2_6_m1 + s2_6_m2 + s2_6_a0 + s2_6_a1 + s3_6_m0 + s3_6_m1 + s3_6_m2 + s3_6_a0 + s3_6_a1 + s4_6_m0 + s4_6_m1 + s4_6_m2 + s4_6_a0 + s4_6_a1 + s5_6_m0 + s5_6_m1 + s5_6_m2 + s5_6_a0 + s5_6_a1 + s6_6_m0 + s6_6_m1 + s6_6_m2 + s6_6_a0 + s6_6_a1 + s7_6_m0 + s7_6_m1 + s7_6_m2 + s7_6_a0 + s7_6_a1 + s8_6_m0 + s8_6_m1 + s8_6_m2 + s8_6_a0 + s8_6_a1
 
Subject To 
 
\\ Writing the morning/afternoon shifts constraints 
 
c0: s0_0_m0 + s0_0_m1 + s0_0_m2 + s1_0_m0 + s1_0_m1 + s1_0_m2 + s2_0_m0 + s2_0_m1 + s2_0_m2 + s3_0_m0 + s3_0_m1 + s3_0_m2 + s4_0_m0 + s4_0_m1 + s4_0_m2 + s5_0_m0 + s5_0_m1 + s5_0_m2 + s6_0_m0 + s6_0_m1 + s6_0_m2 + s7_0_m0 + s7_0_m1 + s7_0_m2 + s8_0_m0 + s8_0_m1 + s8_0_m2 >= 4 
c1: s0_0_a0 + s0_0_a1 + s1_0_a0 + s1_0_a1 + s2_0_a0 + s2_0_a1 + s3_0_a0 + s3_0_a1 + s4_0_a0 + s4_0_a1 + s5_0_a0 + s5_0_a1 + s6_0_a0 + s6_0_a1 + s7_0_a0 + s7_0_a1 + s8_0_a0 + s8_0_a1 >= 3 
c2: s0_0_a0 + s0_0_a1 + s1_0_a0 + s1_0_a1 + s2_0_a0 + s2_0_a1 + s3_0_a0 + s3_0_a1 >= 1
c3: s4_0_a0 + s4_0_a1 + s5_0_a0 + s5_0_a1 >= 1
c4: s6_0_a0 + s6_0_a1 + s7_0_a0 + s7_0_a1 + s8_0_a0 + s8_0_a1 >= 1
c5: s0_1_m0 + s0_1_m1 + s0_1_m2 + s1_1_m0 + s1_1_m1 + s1_1_m2 + s2_1_m0 + s2_1_m1 + s2_1_m2 + s3_1_m0 + s3_1_m1 + s3_1_m2 + s4_1_m0 + s4_1_m1 + s4_1_m2 + s5_1_m0 + s5_1_m1 + s5_1_m2 + s6_1_m0 + s6_1_m1 + s6_1_m2 + s7_1_m0 + s7_1_m1 + s7_1_m2 + s8_1_m0 + s8_1_m1 + s8_1_m2 >= 4 
c6: s0_1_a0 + s0_1_a1 + s1_1_a0 + s1_1_a1 + s2_1_a0 + s2_1_a1 + s3_1_a0 + s3_1_a1 + s4_1_a0 + s4_1_a1 + s5_1_a0 + s5_1_a1 + s6_1_a0 + s6_1_a1 + s7_1_a0 + s7_1_a1 + s8_1_a0 + s8_1_a1 >= 3 
c7: s0_1_a0 + s0_1_a1 + s1_1_a0 + s1_1_a1 + s2_1_a0 + s2_1_a1 + s3_1_a0 + s3_1_a1 >= 1
c8: s4_1_a0 + s4_1_a1 + s5_1_a0 + s5_1_a1 >= 1
c9: s6_1_a0 + s6_1_a1 + s7_1_a0 + s7_1_a1 + s8_1_a0 + s8_1_a1 >= 1
c10: s0_2_m0 + s0_2_m1 + s0_2_m2 + s1_2_m0 + s1_2_m1 + s1_2_m2 + s2_2_m0 + s2_2_m1 + s2_2_m2 + s3_2_m0 + s3_2_m1 + s3_2_m2 + s4_2_m0 + s4_2_m1 + s4_2_m2 + s5_2_m0 + s5_2_m1 + s5_2_m2 + s6_2_m0 + s6_2_m1 + s6_2_m2 + s7_2_m0 + s7_2_m1 + s7_2_m2 + s8_2_m0 + s8_2_m1 + s8_2_m2 >= 4 
c11: s0_2_a0 + s0_2_a1 + s1_2_a0 + s1_2_a1 + s2_2_a0 + s2_2_a1 + s3_2_a0 + s3_2_a1 + s4_2_a0 + s4_2_a1 + s5_2_a0 + s5_2_a1 + s6_2_a0 + s6_2_a1 + s7_2_a0 + s7_2_a1 + s8_2_a0 + s8_2_a1 >= 3 
c12: s0_2_a0 + s0_2_a1 + s1_2_a0 + s1_2_a1 + s2_2_a0 + s2_2_a1 + s3_2_a0 + s3_2_a1 >= 1
c13: s4_2_a0 + s4_2_a1 + s5_2_a0 + s5_2_a1 >= 1
c14: s6_2_a0 + s6_2_a1 + s7_2_a0 + s7_2_a1 + s8_2_a0 + s8_2_a1 >= 1
c15: s0_3_m0 + s0_3_m1 + s0_3_m2 + s1_3_m0 + s1_3_m1 + s1_3_m2 + s2_3_m0 + s2_3_m1 + s2_3_m2 + s3_3_m0 + s3_3_m1 + s3_3_m2 + s4_3_m0 + s4_3_m1 + s4_3_m2 + s5_3_m0 + s5_3_m1 + s5_3_m2 + s6_3_m0 + s6_3_m1 + s6_3_m2 + s7_3_m0 + s7_3_m1 + s7_3_m2 + s8_3_m0 + s8_3_m1 + s8_3_m2 >= 4 
c16: s0_3_a0 + s0_3_a1 + s1_3_a0 + s1_3_a1 + s2_3_a0 + s2_3_a1 + s3_3_a0 + s3_3_a1 + s4_3_a0 + s4_3_a1 + s5_3_a0 + s5_3_a1 + s6_3_a0 + s6_3_a1 + s7_3_a0 + s7_3_a1 + s8_3_a0 + s8_3_a1 >= 3 
c17: s0_3_a0 + s0_3_a1 + s1_3_a0 + s1_3_a1 + s2_3_a0 + s2_3_a1 + s3_3_a0 + s3_3_a1 >= 1
c18: s4_3_a0 + s4_3_a1 + s5_3_a0 + s5_3_a1 >= 1
c19: s6_3_a0 + s6_3_a1 + s7_3_a0 + s7_3_a1 + s8_3_a0 + s8_3_a1 >= 1
c20: s0_4_m0 + s0_4_m1 + s0_4_m2 + s1_4_m0 + s1_4_m1 + s1_4_m2 + s2_4_m0 + s2_4_m1 + s2_4_m2 + s3_4_m0 + s3_4_m1 + s3_4_m2 + s4_4_m0 + s4_4_m1 + s4_4_m2 + s5_4_m0 + s5_4_m1 + s5_4_m2 + s6_4_m0 + s6_4_m1 + s6_4_m2 + s7_4_m0 + s7_4_m1 + s7_4_m2 + s8_4_m0 + s8_4_m1 + s8_4_m2 >= 4 
c21: s0_4_a0 + s0_4_a1 + s1_4_a0 + s1_4_a1 + s2_4_a0 + s2_4_a1 + s3_4_a0 + s3_4_a1 + s4_4_a0 + s4_4_a1 + s5_4_a0 + s5_4_a1 + s6_4_a0 + s6_4_a1 + s7_4_a0 + s7_4_a1 + s8_4_a0 + s8_4_a1 >= 3 
c22: s0_4_a0 + s0_4_a1 + s1_4_a0 + s1_4_a1 + s2_4_a0 + s2_4_a1 + s3_4_a0 + s3_4_a1 >= 1
c23: s4_4_a0 + s4_4_a1 + s5_4_a0 + s5_4_a1 >= 1
c24: s6_4_a0 + s6_4_a1 + s7_4_a0 + s7_4_a1 + s8_4_a0 + s8_4_a1 >= 1
c25: s0_5_m0 + s0_5_m1 + s0_5_m2 + s1_5_m0 + s1_5_m1 + s1_5_m2 + s2_5_m0 + s2_5_m1 + s2_5_m2 + s3_5_m0 + s3_5_m1 + s3_5_m2 + s4_5_m0 + s4_5_m1 + s4_5_m2 + s5_5_m0 + s5_5_m1 + s5_5_m2 + s6_5_m0 + s6_5_m1 + s6_5_m2 + s7_5_m0 + s7_5_m1 + s7_5_m2 + s8_5_m0 + s8_5_m1 + s8_5_m2 >= 3 
c26: s0_5_m0 + s0_5_m1 + s0_5_m2 + s1_5_m0 + s1_5_m1 + s1_5_m2 + s2_5_m0 + s2_5_m1 + s2_5_m2 + s3_5_m0 + s3_5_m1 + s3_5_m2 < 4
c27: s4_5_m0 + s4_5_m1 + s4_5_m2 + s5_5_m0 + s5_5_m1 + s5_5_m2 < 2
c28: s6_5_m0 + s6_5_m1 + s6_5_m2 + s7_5_m0 + s7_5_m1 + s7_5_m2 + s8_5_m0 + s8_5_m1 + s8_5_m2 < 3
c29: s0_5_a0 + s0_5_a1 + s1_5_a0 + s1_5_a1 + s2_5_a0 + s2_5_a1 + s3_5_a0 + s3_5_a1 + s4_5_a0 + s4_5_a1 + s5_5_a0 + s5_5_a1 + s6_5_a0 + s6_5_a1 + s7_5_a0 + s7_5_a1 + s8_5_a0 + s8_5_a1 >= 3 
c30: s0_5_a0 + s0_5_a1 + s1_5_a0 + s1_5_a1 + s2_5_a0 + s2_5_a1 + s3_5_a0 + s3_5_a1 >= 1
c31: s4_5_a0 + s4_5_a1 + s5_5_a0 + s5_5_a1 >= 1
c32: s6_5_a0 + s6_5_a1 + s7_5_a0 + s7_5_a1 + s8_5_a0 + s8_5_a1 >= 1
c33: s0_6_m0 + s0_6_m1 + s0_6_m2 + s1_6_m0 + s1_6_m1 + s1_6_m2 + s2_6_m0 + s2_6_m1 + s2_6_m2 + s3_6_m0 + s3_6_m1 + s3_6_m2 + s4_6_m0 + s4_6_m1 + s4_6_m2 + s5_6_m0 + s5_6_m1 + s5_6_m2 + s6_6_m0 + s6_6_m1 + s6_6_m2 + s7_6_m0 + s7_6_m1 + s7_6_m2 + s8_6_m0 + s8_6_m1 + s8_6_m2 >= 3 
c34: s0_6_m0 + s0_6_m1 + s0_6_m2 + s1_6_m0 + s1_6_m1 + s1_6_m2 + s2_6_m0 + s2_6_m1 + s2_6_m2 + s3_6_m0 + s3_6_m1 + s3_6_m2 < 4
c35: s4_6_m0 + s4_6_m1 + s4_6_m2 + s5_6_m0 + s5_6_m1 + s5_6_m2 < 2
c36: s6_6_m0 + s6_6_m1 + s6_6_m2 + s7_6_m0 + s7_6_m1 + s7_6_m2 + s8_6_m0 + s8_6_m1 + s8_6_m2 < 3
c37: s0_6_a0 + s0_6_a1 + s1_6_a0 + s1_6_a1 + s2_6_a0 + s2_6_a1 + s3_6_a0 + s3_6_a1 + s4_6_a0 + s4_6_a1 + s5_6_a0 + s5_6_a1 + s6_6_a0 + s6_6_a1 + s7_6_a0 + s7_6_a1 + s8_6_a0 + s8_6_a1 >= 3 
c38: s0_6_a0 + s0_6_a1 + s1_6_a0 + s1_6_a1 + s2_6_a0 + s2_6_a1 + s3_6_a0 + s3_6_a1 >= 1
c39: s4_6_a0 + s4_6_a1 + s5_6_a0 + s5_6_a1 >= 1
c40: s6_6_a0 + s6_6_a1 + s7_6_a0 + s7_6_a1 + s8_6_a0 + s8_6_a1 >= 1

\\ Writing the penalty functions for the violation of soft constraints 
 
c41: s0_0_m0 + s0_0_m1 + s0_0_m2 + s1_0_m0 + s1_0_m1 + s1_0_m2 + s2_0_m0 + s2_0_m1 + s2_0_m2 + s3_0_m0 + s3_0_m1 + s3_0_m2 - soft_c_ag1_0 >= 0
c42: s4_0_m0 + s4_0_m1 + s4_0_m2 + s5_0_m0 + s5_0_m1 + s5_0_m2 - soft_c_ag2_0 >= 0
c43: s6_0_m0 + s6_0_m1 + s6_0_m2 + s7_0_m0 + s7_0_m1 + s7_0_m2 + s8_0_m0 + s8_0_m1 + s8_0_m2 - soft_c_ag2_3 >= 0
c44: s0_1_m0 + s0_1_m1 + s0_1_m2 + s1_1_m0 + s1_1_m1 + s1_1_m2 + s2_1_m0 + s2_1_m1 + s2_1_m2 + s3_1_m0 + s3_1_m1 + s3_1_m2 - soft_c_ag1_1 >= 0
c45: s4_1_m0 + s4_1_m1 + s4_1_m2 + s5_1_m0 + s5_1_m1 + s5_1_m2 - soft_c_ag2_1 >= 0
c46: s6_1_m0 + s6_1_m1 + s6_1_m2 + s7_1_m0 + s7_1_m1 + s7_1_m2 + s8_1_m0 + s8_1_m1 + s8_1_m2 - soft_c_ag2_3 >= 0
c47: s0_2_m0 + s0_2_m1 + s0_2_m2 + s1_2_m0 + s1_2_m1 + s1_2_m2 + s2_2_m0 + s2_2_m1 + s2_2_m2 + s3_2_m0 + s3_2_m1 + s3_2_m2 - soft_c_ag1_2 >= 0
c48: s4_2_m0 + s4_2_m1 + s4_2_m2 + s5_2_m0 + s5_2_m1 + s5_2_m2 - soft_c_ag2_2 >= 0
c49: s6_2_m0 + s6_2_m1 + s6_2_m2 + s7_2_m0 + s7_2_m1 + s7_2_m2 + s8_2_m0 + s8_2_m1 + s8_2_m2 - soft_c_ag2_3 >= 0
c50: s0_3_m0 + s0_3_m1 + s0_3_m2 + s1_3_m0 + s1_3_m1 + s1_3_m2 + s2_3_m0 + s2_3_m1 + s2_3_m2 + s3_3_m0 + s3_3_m1 + s3_3_m2 - soft_c_ag1_3 >= 0
c51: s4_3_m0 + s4_3_m1 + s4_3_m2 + s5_3_m0 + s5_3_m1 + s5_3_m2 - soft_c_ag2_3 >= 0
c52: s6_3_m0 + s6_3_m1 + s6_3_m2 + s7_3_m0 + s7_3_m1 + s7_3_m2 + s8_3_m0 + s8_3_m1 + s8_3_m2 - soft_c_ag2_3 >= 0
c53: s0_4_m0 + s0_4_m1 + s0_4_m2 + s1_4_m0 + s1_4_m1 + s1_4_m2 + s2_4_m0 + s2_4_m1 + s2_4_m2 + s3_4_m0 + s3_4_m1 + s3_4_m2 - soft_c_ag1_4 >= 0
c54: s4_4_m0 + s4_4_m1 + s4_4_m2 + s5_4_m0 + s5_4_m1 + s5_4_m2 - soft_c_ag2_4 >= 0
c55: s6_4_m0 + s6_4_m1 + s6_4_m2 + s7_4_m0 + s7_4_m1 + s7_4_m2 + s8_4_m0 + s8_4_m1 + s8_4_m2 - soft_c_ag2_3 >= 0
c56: s0_5_m0 + s0_5_m1 + s0_5_m2 + s1_5_m0 + s1_5_m1 + s1_5_m2 + s2_5_m0 + s2_5_m1 + s2_5_m2 + s3_5_m0 + s3_5_m1 + s3_5_m2 - soft_c_ag1_5 >= 0
c57: s4_5_m0 + s4_5_m1 + s4_5_m2 + s5_5_m0 + s5_5_m1 + s5_5_m2 - soft_c_ag2_5 >= 0
c58: s6_5_m0 + s6_5_m1 + s6_5_m2 + s7_5_m0 + s7_5_m1 + s7_5_m2 + s8_5_m0 + s8_5_m1 + s8_5_m2 - soft_c_ag2_3 >= 0
c59: s0_6_m0 + s0_6_m1 + s0_6_m2 + s1_6_m0 + s1_6_m1 + s1_6_m2 + s2_6_m0 + s2_6_m1 + s2_6_m2 + s3_6_m0 + s3_6_m1 + s3_6_m2 - soft_c_ag1_6 >= 0
c60: s4_6_m0 + s4_6_m1 + s4_6_m2 + s5_6_m0 + s5_6_m1 + s5_6_m2 - soft_c_ag2_6 >= 0
c61: s6_6_m0 + s6_6_m1 + s6_6_m2 + s7_6_m0 + s7_6_m1 + s7_6_m2 + s8_6_m0 + s8_6_m1 + s8_6_m2 - soft_c_ag2_3 >= 0

\\ Writing the constraints that allow only 1 shift per day 
 
c62: s0_0_m0 + s0_0_m1 + s0_0_m2 + s0_0_a0 + s0_0_a1 <= 1
c63: s1_0_m0 + s1_0_m1 + s1_0_m2 + s1_0_a0 + s1_0_a1 <= 1
c64: s2_0_m0 + s2_0_m1 + s2_0_m2 + s2_0_a0 + s2_0_a1 <= 1
c65: s3_0_m0 + s3_0_m1 + s3_0_m2 + s3_0_a0 + s3_0_a1 <= 1
c66: s4_0_m0 + s4_0_m1 + s4_0_m2 + s4_0_a0 + s4_0_a1 <= 1
c67: s5_0_m0 + s5_0_m1 + s5_0_m2 + s5_0_a0 + s5_0_a1 <= 1
c68: s6_0_m0 + s6_0_m1 + s6_0_m2 + s6_0_a0 + s6_0_a1 <= 1
c69: s7_0_m0 + s7_0_m1 + s7_0_m2 + s7_0_a0 + s7_0_a1 <= 1
c70: s8_0_m0 + s8_0_m1 + s8_0_m2 + s8_0_a0 + s8_0_a1 <= 1
c71: s0_1_m0 + s0_1_m1 + s0_1_m2 + s0_1_a0 + s0_1_a1 <= 1
c72: s1_1_m0 + s1_1_m1 + s1_1_m2 + s1_1_a0 + s1_1_a1 <= 1
c73: s2_1_m0 + s2_1_m1 + s2_1_m2 + s2_1_a0 + s2_1_a1 <= 1
c74: s3_1_m0 + s3_1_m1 + s3_1_m2 + s3_1_a0 + s3_1_a1 <= 1
c75: s4_1_m0 + s4_1_m1 + s4_1_m2 + s4_1_a0 + s4_1_a1 <= 1
c76: s5_1_m0 + s5_1_m1 + s5_1_m2 + s5_1_a0 + s5_1_a1 <= 1
c77: s6_1_m0 + s6_1_m1 + s6_1_m2 + s6_1_a0 + s6_1_a1 <= 1
c78: s7_1_m0 + s7_1_m1 + s7_1_m2 + s7_1_a0 + s7_1_a1 <= 1
c79: s8_1_m0 + s8_1_m1 + s8_1_m2 + s8_1_a0 + s8_1_a1 <= 1
c80: s0_2_m0 + s0_2_m1 + s0_2_m2 + s0_2_a0 + s0_2_a1 <= 1
c81: s1_2_m0 + s1_2_m1 + s1_2_m2 + s1_2_a0 + s1_2_a1 <= 1
c82: s2_2_m0 + s2_2_m1 + s2_2_m2 + s2_2_a0 + s2_2_a1 <= 1
c83: s3_2_m0 + s3_2_m1 + s3_2_m2 + s3_2_a0 + s3_2_a1 <= 1
c84: s4_2_m0 + s4_2_m1 + s4_2_m2 + s4_2_a0 + s4_2_a1 <= 1
c85: s5_2_m0 + s5_2_m1 + s5_2_m2 + s5_2_a0 + s5_2_a1 <= 1
c86: s6_2_m0 + s6_2_m1 + s6_2_m2 + s6_2_a0 + s6_2_a1 <= 1
c87: s7_2_m0 + s7_2_m1 + s7_2_m2 + s7_2_a0 + s7_2_a1 <= 1
c88: s8_2_m0 + s8_2_m1 + s8_2_m2 + s8_2_a0 + s8_2_a1 <= 1
c89: s0_3_m0 + s0_3_m1 + s0_3_m2 + s0_3_a0 + s0_3_a1 <= 1
c90: s1_3_m0 + s1_3_m1 + s1_3_m2 + s1_3_a0 + s1_3_a1 <= 1
c91: s2_3_m0 + s2_3_m1 + s2_3_m2 + s2_3_a0 + s2_3_a1 <= 1
c92: s3_3_m0 + s3_3_m1 + s3_3_m2 + s3_3_a0 + s3_3_a1 <= 1
c93: s4_3_m0 + s4_3_m1 + s4_3_m2 + s4_3_a0 + s4_3_a1 <= 1
c94: s5_3_m0 + s5_3_m1 + s5_3_m2 + s5_3_a0 + s5_3_a1 <= 1
c95: s6_3_m0 + s6_3_m1 + s6_3_m2 + s6_3_a0 + s6_3_a1 <= 1
c96: s7_3_m0 + s7_3_m1 + s7_3_m2 + s7_3_a0 + s7_3_a1 <= 1
c97: s8_3_m0 + s8_3_m1 + s8_3_m2 + s8_3_a0 + s8_3_a1 <= 1
c98: s0_4_m0 + s0_4_m1 + s0_4_m2 + s0_4_a0 + s0_4_a1 <= 1
c99: s1_4_m0 + s1_4_m1 + s1_4_m2 + s1_4_a0 + s1_4_a1 <= 1
c100: s2_4_m0 + s2_4_m1 + s2_4_m2 + s2_4_a0 + s2_4_a1 <= 1
c101: s3_4_m0 + s3_4_m1 + s3_4_m2 + s3_4_a0 + s3_4_a1 <= 1
c102: s4_4_m0 + s4_4_m1 + s4_4_m2 + s4_4_a0 + s4_4_a1 <= 1
c103: s5_4_m0 + s5_4_m1 + s5_4_m2 + s5_4_a0 + s5_4_a1 <= 1
c104: s6_4_m0 + s6_4_m1 + s6_4_m2 + s6_4_a0 + s6_4_a1 <= 1
c105: s7_4_m0 + s7_4_m1 + s7_4_m2 + s7_4_a0 + s7_4_a1 <= 1
c106: s8_4_m0 + s8_4_m1 + s8_4_m2 + s8_4_a0 + s8_4_a1 <= 1
c107: s0_5_m0 + s0_5_m1 + s0_5_m2 + s0_5_a0 + s0_5_a1 <= 1
c108: s1_5_m0 + s1_5_m1 + s1_5_m2 + s1_5_a0 + s1_5_a1 <= 1
c109: s2_5_m0 + s2_5_m1 + s2_5_m2 + s2_5_a0 + s2_5_a1 <= 1
c110: s3_5_m0 + s3_5_m1 + s3_5_m2 + s3_5_a0 + s3_5_a1 <= 1
c111: s4_5_m0 + s4_5_m1 + s4_5_m2 + s4_5_a0 + s4_5_a1 <= 1
c112: s5_5_m0 + s5_5_m1 + s5_5_m2 + s5_5_a0 + s5_5_a1 <= 1
c113: s6_5_m0 + s6_5_m1 + s6_5_m2 + s6_5_a0 + s6_5_a1 <= 1
c114: s7_5_m0 + s7_5_m1 + s7_5_m2 + s7_5_a0 + s7_5_a1 <= 1
c115: s8_5_m0 + s8_5_m1 + s8_5_m2 + s8_5_a0 + s8_5_a1 <= 1
c116: s0_6_m0 + s0_6_m1 + s0_6_m2 + s0_6_a0 + s0_6_a1 <= 1
c117: s1_6_m0 + s1_6_m1 + s1_6_m2 + s1_6_a0 + s1_6_a1 <= 1
c118: s2_6_m0 + s2_6_m1 + s2_6_m2 + s2_6_a0 + s2_6_a1 <= 1
c119: s3_6_m0 + s3_6_m1 + s3_6_m2 + s3_6_a0 + s3_6_a1 <= 1
c120: s4_6_m0 + s4_6_m1 + s4_6_m2 + s4_6_a0 + s4_6_a1 <= 1
c121: s5_6_m0 + s5_6_m1 + s5_6_m2 + s5_6_a0 + s5_6_a1 <= 1
c122: s6_6_m0 + s6_6_m1 + s6_6_m2 + s6_6_a0 + s6_6_a1 <= 1
c123: s7_6_m0 + s7_6_m1 + s7_6_m2 + s7_6_a0 + s7_6_a1 <= 1
c124: s8_6_m0 + s8_6_m1 + s8_6_m2 + s8_6_a0 + s8_6_a1 <= 1

\\ Writing the constraints that ensures that each staff has at least 1 day off 
 
c125: s0_0_m0 + s0_0_m1 + s0_0_m2 + s0_0_a0 + s0_0_a1 + s0_1_m0 + s0_1_m1 + s0_1_m2 + s0_1_a0 + s0_1_a1 + s0_2_m0 + s0_2_m1 + s0_2_m2 + s0_2_a0 + s0_2_a1 + s0_3_m0 + s0_3_m1 + s0_3_m2 + s0_3_a0 + s0_3_a1 + s0_4_m0 + s0_4_m1 + s0_4_m2 + s0_4_a0 + s0_4_a1 + s0_5_m0 + s0_5_m1 + s0_5_m2 + s0_5_a0 + s0_5_a1 + s0_6_m0 + s0_6_m1 + s0_6_m2 + s0_6_a0 + s0_6_a1 = 6 
c126: s1_0_m0 + s1_0_m1 + s1_0_m2 + s1_0_a0 + s1_0_a1 + s1_1_m0 + s1_1_m1 + s1_1_m2 + s1_1_a0 + s1_1_a1 + s1_2_m0 + s1_2_m1 + s1_2_m2 + s1_2_a0 + s1_2_a1 + s1_3_m0 + s1_3_m1 + s1_3_m2 + s1_3_a0 + s1_3_a1 + s1_4_m0 + s1_4_m1 + s1_4_m2 + s1_4_a0 + s1_4_a1 + s1_5_m0 + s1_5_m1 + s1_5_m2 + s1_5_a0 + s1_5_a1 + s1_6_m0 + s1_6_m1 + s1_6_m2 + s1_6_a0 + s1_6_a1 = 6 
c127: s2_0_m0 + s2_0_m1 + s2_0_m2 + s2_0_a0 + s2_0_a1 + s2_1_m0 + s2_1_m1 + s2_1_m2 + s2_1_a0 + s2_1_a1 + s2_2_m0 + s2_2_m1 + s2_2_m2 + s2_2_a0 + s2_2_a1 + s2_3_m0 + s2_3_m1 + s2_3_m2 + s2_3_a0 + s2_3_a1 + s2_4_m0 + s2_4_m1 + s2_4_m2 + s2_4_a0 + s2_4_a1 + s2_5_m0 + s2_5_m1 + s2_5_m2 + s2_5_a0 + s2_5_a1 + s2_6_m0 + s2_6_m1 + s2_6_m2 + s2_6_a0 + s2_6_a1 = 6 
c128: s3_0_m0 + s3_0_m1 + s3_0_m2 + s3_0_a0 + s3_0_a1 + s3_1_m0 + s3_1_m1 + s3_1_m2 + s3_1_a0 + s3_1_a1 + s3_2_m0 + s3_2_m1 + s3_2_m2 + s3_2_a0 + s3_2_a1 + s3_3_m0 + s3_3_m1 + s3_3_m2 + s3_3_a0 + s3_3_a1 + s3_4_m0 + s3_4_m1 + s3_4_m2 + s3_4_a0 + s3_4_a1 + s3_5_m0 + s3_5_m1 + s3_5_m2 + s3_5_a0 + s3_5_a1 + s3_6_m0 + s3_6_m1 + s3_6_m2 + s3_6_a0 + s3_6_a1 = 6 
c129: s4_0_m0 + s4_0_m1 + s4_0_m2 + s4_0_a0 + s4_0_a1 + s4_1_m0 + s4_1_m1 + s4_1_m2 + s4_1_a0 + s4_1_a1 + s4_2_m0 + s4_2_m1 + s4_2_m2 + s4_2_a0 + s4_2_a1 + s4_3_m0 + s4_3_m1 + s4_3_m2 + s4_3_a0 + s4_3_a1 + s4_4_m0 + s4_4_m1 + s4_4_m2 + s4_4_a0 + s4_4_a1 + s4_5_m0 + s4_5_m1 + s4_5_m2 + s4_5_a0 + s4_5_a1 + s4_6_m0 + s4_6_m1 + s4_6_m2 + s4_6_a0 + s4_6_a1 = 6 
c130: s5_0_m0 + s5_0_m1 + s5_0_m2 + s5_0_a0 + s5_0_a1 + s5_1_m0 + s5_1_m1 + s5_1_m2 + s5_1_a0 + s5_1_a1 + s5_2_m0 + s5_2_m1 + s5_2_m2 + s5_2_a0 + s5_2_a1 + s5_3_m0 + s5_3_m1 + s5_3_m2 + s5_3_a0 + s5_3_a1 + s5_4_m0 + s5_4_m1 + s5_4_m2 + s5_4_a0 + s5_4_a1 + s5_5_m0 + s5_5_m1 + s5_5_m2 + s5_5_a0 + s5_5_a1 + s5_6_m0 + s5_6_m1 + s5_6_m2 + s5_6_a0 + s5_6_a1 = 6 
c131: s6_0_m0 + s6_0_m1 + s6_0_m2 + s6_0_a0 + s6_0_a1 + s6_1_m0 + s6_1_m1 + s6_1_m2 + s6_1_a0 + s6_1_a1 + s6_2_m0 + s6_2_m1 + s6_2_m2 + s6_2_a0 + s6_2_a1 + s6_3_m0 + s6_3_m1 + s6_3_m2 + s6_3_a0 + s6_3_a1 + s6_4_m0 + s6_4_m1 + s6_4_m2 + s6_4_a0 + s6_4_a1 + s6_5_m0 + s6_5_m1 + s6_5_m2 + s6_5_a0 + s6_5_a1 + s6_6_m0 + s6_6_m1 + s6_6_m2 + s6_6_a0 + s6_6_a1 = 6 
c132: s7_0_m0 + s7_0_m1 + s7_0_m2 + s7_0_a0 + s7_0_a1 + s7_1_m0 + s7_1_m1 + s7_1_m2 + s7_1_a0 + s7_1_a1 + s7_2_m0 + s7_2_m1 + s7_2_m2 + s7_2_a0 + s7_2_a1 + s7_3_m0 + s7_3_m1 + s7_3_m2 + s7_3_a0 + s7_3_a1 + s7_4_m0 + s7_4_m1 + s7_4_m2 + s7_4_a0 + s7_4_a1 + s7_5_m0 + s7_5_m1 + s7_5_m2 + s7_5_a0 + s7_5_a1 + s7_6_m0 + s7_6_m1 + s7_6_m2 + s7_6_a0 + s7_6_a1 = 6 
c133: s8_0_m0 + s8_0_m1 + s8_0_m2 + s8_0_a0 + s8_0_a1 + s8_1_m0 + s8_1_m1 + s8_1_m2 + s8_1_a0 + s8_1_a1 + s8_2_m0 + s8_2_m1 + s8_2_m2 + s8_2_a0 + s8_2_a1 + s8_3_m0 + s8_3_m1 + s8_3_m2 + s8_3_a0 + s8_3_a1 + s8_4_m0 + s8_4_m1 + s8_4_m2 + s8_4_a0 + s8_4_a1 + s8_5_m0 + s8_5_m1 + s8_5_m2 + s8_5_a0 + s8_5_a1 + s8_6_m0 + s8_6_m1 + s8_6_m2 + s8_6_a0 + s8_6_a1 = 6 

\\ Writing the constraints that ensures that each staff must have 44 working hours 
 
c134: 9 s0_0_m0 + 8 s0_0_m1 + 4 s0_0_m2 + 9 s0_0_a0 + 8 s0_0_a1 + 9 s0_1_m0 + 8 s0_1_m1 + 4 s0_1_m2 + 9 s0_1_a0 + 8 s0_1_a1 + 9 s0_2_m0 + 8 s0_2_m1 + 4 s0_2_m2 + 9 s0_2_a0 + 8 s0_2_a1 + 9 s0_3_m0 + 8 s0_3_m1 + 4 s0_3_m2 + 9 s0_3_a0 + 8 s0_3_a1 + 9 s0_4_m0 + 8 s0_4_m1 + 4 s0_4_m2 + 9 s0_4_a0 + 8 s0_4_a1 + 9 s0_5_m0 + 8 s0_5_m1 + 4 s0_5_m2 + 9 s0_5_a0 + 8 s0_5_a1 + 9 s0_6_m0 + 8 s0_6_m1 + 4 s0_6_m2 + 9 s0_6_a0 + 8 s0_6_a1 = 44 
c135: 9 s1_0_m0 + 8 s1_0_m1 + 4 s1_0_m2 + 9 s1_0_a0 + 8 s1_0_a1 + 9 s1_1_m0 + 8 s1_1_m1 + 4 s1_1_m2 + 9 s1_1_a0 + 8 s1_1_a1 + 9 s1_2_m0 + 8 s1_2_m1 + 4 s1_2_m2 + 9 s1_2_a0 + 8 s1_2_a1 + 9 s1_3_m0 + 8 s1_3_m1 + 4 s1_3_m2 + 9 s1_3_a0 + 8 s1_3_a1 + 9 s1_4_m0 + 8 s1_4_m1 + 4 s1_4_m2 + 9 s1_4_a0 + 8 s1_4_a1 + 9 s1_5_m0 + 8 s1_5_m1 + 4 s1_5_m2 + 9 s1_5_a0 + 8 s1_5_a1 + 9 s1_6_m0 + 8 s1_6_m1 + 4 s1_6_m2 + 9 s1_6_a0 + 8 s1_6_a1 = 44 
c136: 9 s2_0_m0 + 8 s2_0_m1 + 4 s2_0_m2 + 9 s2_0_a0 + 8 s2_0_a1 + 9 s2_1_m0 + 8 s2_1_m1 + 4 s2_1_m2 + 9 s2_1_a0 + 8 s2_1_a1 + 9 s2_2_m0 + 8 s2_2_m1 + 4 s2_2_m2 + 9 s2_2_a0 + 8 s2_2_a1 + 9 s2_3_m0 + 8 s2_3_m1 + 4 s2_3_m2 + 9 s2_3_a0 + 8 s2_3_a1 + 9 s2_4_m0 + 8 s2_4_m1 + 4 s2_4_m2 + 9 s2_4_a0 + 8 s2_4_a1 + 9 s2_5_m0 + 8 s2_5_m1 + 4 s2_5_m2 + 9 s2_5_a0 + 8 s2_5_a1 + 9 s2_6_m0 + 8 s2_6_m1 + 4 s2_6_m2 + 9 s2_6_a0 + 8 s2_6_a1 = 44 
c137: 9 s3_0_m0 + 8 s3_0_m1 + 4 s3_0_m2 + 9 s3_0_a0 + 8 s3_0_a1 + 9 s3_1_m0 + 8 s3_1_m1 + 4 s3_1_m2 + 9 s3_1_a0 + 8 s3_1_a1 + 9 s3_2_m0 + 8 s3_2_m1 + 4 s3_2_m2 + 9 s3_2_a0 + 8 s3_2_a1 + 9 s3_3_m0 + 8 s3_3_m1 + 4 s3_3_m2 + 9 s3_3_a0 + 8 s3_3_a1 + 9 s3_4_m0 + 8 s3_4_m1 + 4 s3_4_m2 + 9 s3_4_a0 + 8 s3_4_a1 + 9 s3_5_m0 + 8 s3_5_m1 + 4 s3_5_m2 + 9 s3_5_a0 + 8 s3_5_a1 + 9 s3_6_m0 + 8 s3_6_m1 + 4 s3_6_m2 + 9 s3_6_a0 + 8 s3_6_a1 = 44 
c138: 9 s4_0_m0 + 8 s4_0_m1 + 4 s4_0_m2 + 9 s4_0_a0 + 8 s4_0_a1 + 9 s4_1_m0 + 8 s4_1_m1 + 4 s4_1_m2 + 9 s4_1_a0 + 8 s4_1_a1 + 9 s4_2_m0 + 8 s4_2_m1 + 4 s4_2_m2 + 9 s4_2_a0 + 8 s4_2_a1 + 9 s4_3_m0 + 8 s4_3_m1 + 4 s4_3_m2 + 9 s4_3_a0 + 8 s4_3_a1 + 9 s4_4_m0 + 8 s4_4_m1 + 4 s4_4_m2 + 9 s4_4_a0 + 8 s4_4_a1 + 9 s4_5_m0 + 8 s4_5_m1 + 4 s4_5_m2 + 9 s4_5_a0 + 8 s4_5_a1 + 9 s4_6_m0 + 8 s4_6_m1 + 4 s4_6_m2 + 9 s4_6_a0 + 8 s4_6_a1 = 44 
c139: 9 s5_0_m0 + 8 s5_0_m1 + 4 s5_0_m2 + 9 s5_0_a0 + 8 s5_0_a1 + 9 s5_1_m0 + 8 s5_1_m1 + 4 s5_1_m2 + 9 s5_1_a0 + 8 s5_1_a1 + 9 s5_2_m0 + 8 s5_2_m1 + 4 s5_2_m2 + 9 s5_2_a0 + 8 s5_2_a1 + 9 s5_3_m0 + 8 s5_3_m1 + 4 s5_3_m2 + 9 s5_3_a0 + 8 s5_3_a1 + 9 s5_4_m0 + 8 s5_4_m1 + 4 s5_4_m2 + 9 s5_4_a0 + 8 s5_4_a1 + 9 s5_5_m0 + 8 s5_5_m1 + 4 s5_5_m2 + 9 s5_5_a0 + 8 s5_5_a1 + 9 s5_6_m0 + 8 s5_6_m1 + 4 s5_6_m2 + 9 s5_6_a0 + 8 s5_6_a1 = 44 
c140: 9 s6_0_m0 + 8 s6_0_m1 + 4 s6_0_m2 + 9 s6_0_a0 + 8 s6_0_a1 + 9 s6_1_m0 + 8 s6_1_m1 + 4 s6_1_m2 + 9 s6_1_a0 + 8 s6_1_a1 + 9 s6_2_m0 + 8 s6_2_m1 + 4 s6_2_m2 + 9 s6_2_a0 + 8 s6_2_a1 + 9 s6_3_m0 + 8 s6_3_m1 + 4 s6_3_m2 + 9 s6_3_a0 + 8 s6_3_a1 + 9 s6_4_m0 + 8 s6_4_m1 + 4 s6_4_m2 + 9 s6_4_a0 + 8 s6_4_a1 + 9 s6_5_m0 + 8 s6_5_m1 + 4 s6_5_m2 + 9 s6_5_a0 + 8 s6_5_a1 + 9 s6_6_m0 + 8 s6_6_m1 + 4 s6_6_m2 + 9 s6_6_a0 + 8 s6_6_a1 = 44 
c141: 9 s7_0_m0 + 8 s7_0_m1 + 4 s7_0_m2 + 9 s7_0_a0 + 8 s7_0_a1 + 9 s7_1_m0 + 8 s7_1_m1 + 4 s7_1_m2 + 9 s7_1_a0 + 8 s7_1_a1 + 9 s7_2_m0 + 8 s7_2_m1 + 4 s7_2_m2 + 9 s7_2_a0 + 8 s7_2_a1 + 9 s7_3_m0 + 8 s7_3_m1 + 4 s7_3_m2 + 9 s7_3_a0 + 8 s7_3_a1 + 9 s7_4_m0 + 8 s7_4_m1 + 4 s7_4_m2 + 9 s7_4_a0 + 8 s7_4_a1 + 9 s7_5_m0 + 8 s7_5_m1 + 4 s7_5_m2 + 9 s7_5_a0 + 8 s7_5_a1 + 9 s7_6_m0 + 8 s7_6_m1 + 4 s7_6_m2 + 9 s7_6_a0 + 8 s7_6_a1 = 44 
c142: 9 s8_0_m0 + 8 s8_0_m1 + 4 s8_0_m2 + 9 s8_0_a0 + 8 s8_0_a1 + 9 s8_1_m0 + 8 s8_1_m1 + 4 s8_1_m2 + 9 s8_1_a0 + 8 s8_1_a1 + 9 s8_2_m0 + 8 s8_2_m1 + 4 s8_2_m2 + 9 s8_2_a0 + 8 s8_2_a1 + 9 s8_3_m0 + 8 s8_3_m1 + 4 s8_3_m2 + 9 s8_3_a0 + 8 s8_3_a1 + 9 s8_4_m0 + 8 s8_4_m1 + 4 s8_4_m2 + 9 s8_4_a0 + 8 s8_4_a1 + 9 s8_5_m0 + 8 s8_5_m1 + 4 s8_5_m2 + 9 s8_5_a0 + 8 s8_5_a1 + 9 s8_6_m0 + 8 s8_6_m1 + 4 s8_6_m2 + 9 s8_6_a0 + 8 s8_6_a1 = 44 

\\ Writing the constraints that ensures the stipulated staff have to be off on public holidays 
 

Binary 
 
s0_0_m0
s0_0_m1
s0_0_m2
s0_0_a0
s0_0_a1
s1_0_m0
s1_0_m1
s1_0_m2
s1_0_a0
s1_0_a1
s2_0_m0
s2_0_m1
s2_0_m2
s2_0_a0
s2_0_a1
s3_0_m0
s3_0_m1
s3_0_m2
s3_0_a0
s3_0_a1
s4_0_m0
s4_0_m1
s4_0_m2
s4_0_a0
s4_0_a1
s5_0_m0
s5_0_m1
s5_0_m2
s5_0_a0
s5_0_a1
s6_0_m0
s6_0_m1
s6_0_m2
s6_0_a0
s6_0_a1
s7_0_m0
s7_0_m1
s7_0_m2
s7_0_a0
s7_0_a1
s8_0_m0
s8_0_m1
s8_0_m2
s8_0_a0
s8_0_a1
s0_1_m0
s0_1_m1
s0_1_m2
s0_1_a0
s0_1_a1
s1_1_m0
s1_1_m1
s1_1_m2
s1_1_a0
s1_1_a1
s2_1_m0
s2_1_m1
s2_1_m2
s2_1_a0
s2_1_a1
s3_1_m0
s3_1_m1
s3_1_m2
s3_1_a0
s3_1_a1
s4_1_m0
s4_1_m1
s4_1_m2
s4_1_a0
s4_1_a1
s5_1_m0
s5_1_m1
s5_1_m2
s5_1_a0
s5_1_a1
s6_1_m0
s6_1_m1
s6_1_m2
s6_1_a0
s6_1_a1
s7_1_m0
s7_1_m1
s7_1_m2
s7_1_a0
s7_1_a1
s8_1_m0
s8_1_m1
s8_1_m2
s8_1_a0
s8_1_a1
s0_2_m0
s0_2_m1
s0_2_m2
s0_2_a0
s0_2_a1
s1_2_m0
s1_2_m1
s1_2_m2
s1_2_a0
s1_2_a1
s2_2_m0
s2_2_m1
s2_2_m2
s2_2_a0
s2_2_a1
s3_2_m0
s3_2_m1
s3_2_m2
s3_2_a0
s3_2_a1
s4_2_m0
s4_2_m1
s4_2_m2
s4_2_a0
s4_2_a1
s5_2_m0
s5_2_m1
s5_2_m2
s5_2_a0
s5_2_a1
s6_2_m0
s6_2_m1
s6_2_m2
s6_2_a0
s6_2_a1
s7_2_m0
s7_2_m1
s7_2_m2
s7_2_a0
s7_2_a1
s8_2_m0
s8_2_m1
s8_2_m2
s8_2_a0
s8_2_a1
s0_3_m0
s0_3_m1
s0_3_m2
s0_3_a0
s0_3_a1
s1_3_m0
s1_3_m1
s1_3_m2
s1_3_a0
s1_3_a1
s2_3_m0
s2_3_m1
s2_3_m2
s2_3_a0
s2_3_a1
s3_3_m0
s3_3_m1
s3_3_m2
s3_3_a0
s3_3_a1
s4_3_m0
s4_3_m1
s4_3_m2
s4_3_a0
s4_3_a1
s5_3_m0
s5_3_m1
s5_3_m2
s5_3_a0
s5_3_a1
s6_3_m0
s6_3_m1
s6_3_m2
s6_3_a0
s6_3_a1
s7_3_m0
s7_3_m1
s7_3_m2
s7_3_a0
s7_3_a1
s8_3_m0
s8_3_m1
s8_3_m2
s8_3_a0
s8_3_a1
s0_4_m0
s0_4_m1
s0_4_m2
s0_4_a0
s0_4_a1
s1_4_m0
s1_4_m1
s1_4_m2
s1_4_a0
s1_4_a1
s2_4_m0
s2_4_m1
s2_4_m2
s2_4_a0
s2_4_a1
s3_4_m0
s3_4_m1
s3_4_m2
s3_4_a0
s3_4_a1
s4_4_m0
s4_4_m1
s4_4_m2
s4_4_a0
s4_4_a1
s5_4_m0
s5_4_m1
s5_4_m2
s5_4_a0
s5_4_a1
s6_4_m0
s6_4_m1
s6_4_m2
s6_4_a0
s6_4_a1
s7_4_m0
s7_4_m1
s7_4_m2
s7_4_a0
s7_4_a1
s8_4_m0
s8_4_m1
s8_4_m2
s8_4_a0
s8_4_a1
s0_5_m0
s0_5_m1
s0_5_m2
s0_5_a0
s0_5_a1
s1_5_m0
s1_5_m1
s1_5_m2
s1_5_a0
s1_5_a1
s2_5_m0
s2_5_m1
s2_5_m2
s2_5_a0
s2_5_a1
s3_5_m0
s3_5_m1
s3_5_m2
s3_5_a0
s3_5_a1
s4_5_m0
s4_5_m1
s4_5_m2
s4_5_a0
s4_5_a1
s5_5_m0
s5_5_m1
s5_5_m2
s5_5_a0
s5_5_a1
s6_5_m0
s6_5_m1
s6_5_m2
s6_5_a0
s6_5_a1
s7_5_m0
s7_5_m1
s7_5_m2
s7_5_a0
s7_5_a1
s8_5_m0
s8_5_m1
s8_5_m2
s8_5_a0
s8_5_a1
s0_6_m0
s0_6_m1
s0_6_m2
s0_6_a0
s0_6_a1
s1_6_m0
s1_6_m1
s1_6_m2
s1_6_a0
s1_6_a1
s2_6_m0
s2_6_m1
s2_6_m2
s2_6_a0
s2_6_a1
s3_6_m0
s3_6_m1
s3_6_m2
s3_6_a0
s3_6_a1
s4_6_m0
s4_6_m1
s4_6_m2
s4_6_a0
s4_6_a1
s5_6_m0
s5_6_m1
s5_6_m2
s5_6_a0
s5_6_a1
s6_6_m0
s6_6_m1
s6_6_m2
s6_6_a0
s6_6_a1
s7_6_m0
s7_6_m1
s7_6_m2
s7_6_a0
s7_6_a1
s8_6_m0
s8_6_m1
s8_6_m2
s8_6_a0
s8_6_a1
soft_c_ag1_0
soft_c_ag1_1
soft_c_ag1_2
soft_c_ag1_3
soft_c_ag1_4
soft_c_ag1_5
soft_c_ag1_6
soft_c_ag2_0
soft_c_ag2_1
soft_c_ag2_2
soft_c_ag2_3
soft_c_ag2_4
soft_c_ag2_5
soft_c_ag2_6
soft_c_ag3_0
soft_c_ag3_1
soft_c_ag3_2
soft_c_ag3_3
soft_c_ag3_4
soft_c_ag3_5
soft_c_ag3_6

End 
